NAME: sim-grid-B-45
TYPE: TSP
COMMENT: Semi-regular Grid
DIMENSION: 45
EDGE_WEIGHT_TYPE: EUC_2D
NODE_COORD_SECTION
1 300 100
2 450 100
3 650 100
4 800 100
5 1000 100
6 1350 100
7 100 200
8 300 200
9 450 200
10 800 200
11 1000 200
12 1150 200
13 1500 200
14 100 350
15 300 350
16 500 350
17 700 350
18 900 350
19 1100 350
20 1500 350
21 100 450
22 300 450
23 500 450
24 700 450
25 900 450
26 1100 450
27 1300 450
28 50 600
29 150 600
30 650 600
31 750 600
32 1050 600
33 1250 600
34 1350 600
35 1550 600
36 50 700
37 150 700
38 350 700
39 650 700
40 750 700
41 950 700
42 1050 700
43 1250 700
44 1350 700
45 1550 700
EOF
